n = 25;
m = 142;

duree_tache = [4, 7, 10, 2, 6, 3, 2, 8, 8, 5, 9, 8, 10, 4, 10, 3, 7, 5, 4, 4, 3, 2, 9, 2, 7];
ressource_tache = [1, 1, 2, 1, 2, 4, 1, 2, 5, 5, 4, 3, 3, 2, 5, 3, 2, 1, 2, 3, 1, 2, 3, 1, 2];

limite = 10;